c 7_3_checker_6cl.cnf
c
c field = 7
c formula set type = 3_checker_6cl
c
p cnf 6 16
6 
8 
10 
-5 
-2 
-14 
7 
9 
11 
-4 
-3 
-15 
6 
8 
10 
-15 
-4 
-16 
7 
9 
11 
-14 
-5 
-17 
8 
10 
14 
-7 
-4 
-16 
9 
11 
15 
-6 
-5 
-17 
8 
10 
14 
-17 
-6 
-18 
9 
11 
15 
-16 
-7 
-19 
10 
14 
16 
-9 
-6 
-18 
11 
15 
17 
-8 
-7 
-19 
10 
14 
16 
-19 
-8 
-20 
11 
15 
17 
-18 
-9 
-21 
14 
16 
18 
-11 
-8 
-20 
15 
17 
19 
-10 
-9 
-21 
14 
16 
18 
-21 
-10 
-22 
15 
17 
19 
-20 
-11 
-23 
